p cnf 9 24
3 0
-1 0
6 0
-4 0
9 0
-7 0
-1 2 0
-2 3 0
-4 5 0
-5 6 0
-7 8 0
-8 9 0
-4 1 0
-4 7 0
-5 2 0
-5 8 0
-6 3 0
-6 9 0
-5 1 7 0
-6 2 8 0
-2 1 -8 5 0
-2 7 -8 5 0
-3 2 -9 6 0
-3 8 -9 6 0
